p cnf 103 348
3 1 0
3 2 0
-1 -2 -3 0
-6 4 0
-6 -5 0
-4 5 6 0
-7 -1 0
-7 -6 0
1 6 7 0
10 8 0
10 -9 0
-8 9 -10 0
-11 7 0
-11 10 0
-7 -10 11 0
13 -11 0
13 -12 0
11 12 -13 0
14 -13 0
14 9 0
13 -9 -14 0
15 14 0
15 7 0
-14 -7 -15 0
-17 -15 0
-17 -16 0
15 16 17 0
-18 -3 0
-18 -17 0
3 17 18 0
-20 9 0
-20 -19 0
-9 19 20 0
21 12 0
21 20 0
-12 -20 -21 0
22 -23 -24 0
-22 23 -24 0
22 23 24 0
-22 -23 24 0
25 -24 0
25 20 0
24 -20 -25 0
27 -10 0
27 26 0
10 -26 -27 0
-12 28 0
12 28 0
29 28 0
29 20 0
-28 -20 -29 0
-30 -29 0
-30 -6 0
29 6 30 0
31 27 0
31 -30 0
-27 30 -31 0
-32 25 0
-32 -31 0
-25 31 32 0
33 -21 0
33 -32 0
21 32 -33 0
34 18 0
34 33 0
-18 -33 -34 0
-8 1 -35 0
8 -1 -35 0
-8 -1 35 0
8 1 35 0
37 -35 0
37 36 0
35 -36 -37 0
38 34 0
38 37 0
-34 -37 -38 0
20 -4 -39 0
-20 4 -39 0
20 4 39 0
-20 -4 39 0
40 -28 0
40 -12 0
28 12 -40 0
-39 40 -41 0
39 -40 -41 0
-39 -40 41 0
39 40 41 0
42 41 0
42 13 0
-41 -13 -42 0
-43 -42 0
-43 -5 0
42 5 43 0
44 5 0
44 43 0
-5 -43 -44 0
-45 -8 0
-45 -39 0
8 39 45 0
47 46 0
47 36 0
-46 -36 -47 0
-48 23 0
-48 -35 0
-23 35 48 0
10 48 -49 0
-10 -48 -49 0
10 -48 49 0
-10 48 49 0
-22 -24 -50 0
22 24 -50 0
-22 24 50 0
22 -24 50 0
36 50 -51 0
-36 -50 -51 0
36 -50 51 0
-36 50 51 0
-52 -46 0
-52 9 0
46 -9 52 0
-53 -51 0
-53 52 0
51 -52 53 0
54 49 0
54 53 0
-49 -53 -54 0
55 47 0
55 54 0
-47 -54 -55 0
-45 55 -56 0
45 -55 -56 0
-45 -55 56 0
45 55 56 0
-57 14 0
-57 14 0
-14 57 0
57 5 -58 0
-57 -5 -58 0
57 -5 58 0
-57 5 58 0
59 -23 0
59 -46 0
23 46 -59 0
60 59 0
60 -8 0
-59 8 -60 0
61 -60 0
61 -50 0
60 50 -61 0
62 46 0
62 -5 0
-46 5 -62 0
63 62 0
63 -24 0
-62 24 -63 0
-20 -63 -64 0
20 63 -64 0
-20 63 64 0
20 -63 64 0
65 -61 0
65 -64 0
61 64 -65 0
-66 58 0
-66 65 0
-58 -65 66 0
67 56 0
67 -66 0
-56 66 -67 0
-68 -44 0
-68 67 0
44 -67 68 0
69 10 0
69 19 0
-10 -19 -69 0
70 42 0
70 -59 0
-42 59 -70 0
71 2 0
71 -11 0
-2 11 -71 0
72 70 0
72 71 0
-70 -71 -72 0
-29 19 -73 0
29 -19 -73 0
-29 -19 73 0
29 19 73 0
-74 -72 0
-74 -73 0
72 73 74 0
69 -74 -75 0
-69 74 -75 0
69 74 75 0
-69 -74 75 0
76 -19 0
76 36 0
19 -36 -76 0
75 76 -77 0
-75 -76 -77 0
75 -76 77 0
-75 76 77 0
-78 -68 0
-78 77 0
68 -77 78 0
-79 -42 0
-79 23 0
42 -23 79 0
-80 -39 0
-80 60 0
39 -60 80 0
-81 -79 0
-81 -80 0
79 80 81 0
82 46 0
82 -1 0
-46 1 -82 0
-83 -20 0
-83 82 0
20 -82 83 0
-84 8 0
-84 -7 0
-8 7 84 0
-85 -43 0
-85 -57 0
43 57 85 0
86 -48 0
86 36 0
48 -36 -86 0
-85 86 -87 0
85 -86 -87 0
-85 -86 87 0
85 86 87 0
88 -36 0
88 -62 0
36 62 -88 0
-88 12 -89 0
88 -12 -89 0
-88 -12 89 0
88 12 89 0
90 -87 0
90 89 0
87 -89 -90 0
84 90 -91 0
-84 -90 -91 0
84 -90 91 0
-84 90 91 0
-92 83 0
-92 -91 0
-83 91 92 0
-19 62 -93 0
19 -62 -93 0
-19 -62 93 0
19 62 93 0
-93 11 -94 0
93 -11 -94 0
-93 -11 94 0
93 11 94 0
-50 -4 -95 0
50 4 -95 0
-50 4 95 0
50 -4 95 0
96 -20 0
96 -46 0
20 46 -96 0
96 -1 -97 0
-96 1 -97 0
96 1 97 0
-96 -1 97 0
95 97 -98 0
-95 -97 -98 0
95 -97 98 0
-95 97 98 0
-94 -98 -99 0
94 98 -99 0
-94 98 99 0
94 -98 99 0
100 -92 0
100 99 0
92 -99 -100 0
-81 100 -101 0
81 -100 -101 0
-81 -100 101 0
81 100 101 0
-102 78 0
-102 -101 0
-78 101 102 0
-103 -38 0
-103 -102 0
38 102 103 0
57 97 -27 -39 -96 0
-22 -96 0
-99 -2 64 89 0
-73 81 0
71 59 75 -6 -31 0
34 -50 53 -51 0
58 -26 78 -25 -13 45 0
92 -100 -83 0
25 72 7 -44 0
9 -101 -58 -50 75 -68 0
-37 68 23 -74 -67 0
11 -8 -48 82 -23 0
93 -44 -46 81 -59 0
-1 99 0
-54 -47 85 0
8 -67 -50 62 0
-101 -74 48 44 -99 0
22 -50 0
-94 1 93 -64 0
2 -103 20 -19 -98 0
101 -22 0
-99 -100 0
85 -30 -75 -49 56 0
-90 55 0
-57 -25 -6 -76 -89 -13 0
28 -101 -5 -12 35 52 0
-33 -52 0
-78 6 0
1 -43 -22 83 0
-58 -59 68 -39 98 0
-19 55 0
4 -41 -52 62 84 -56 0
-8 49 58 -2 86 64 0
-38 -74 -17 92 -32 0
-17 -84 -3 -98 0
40 83 76 -77 -59 6 0
93 -75 82 -103 0
-83 -38 28 -64 51 0
-67 1 46 0
52 80 -62 -23 42 0
-76 -46 59 -54 -83 0
-86 -19 2 -35 -14 0
48 -100 0
54 52 40 0
51 94 0
-52 81 -61 -92 0
-25 -92 84 -46 0
-1 80 96 26 57 0
-86 39 -76 0
68 101 0
-99 1 -63 0
11 65 0
-2 16 57 0
-47 40 51 -45 -44 -19 0
-102 -7 57 -58 0
-8 -85 73 -75 79 0
10 -59 -31 72 100 101 0
23 -33 20 -38 54 0
103 0
